Version identifier: 22.1.0.0 | 2022-03-09 | 1a383f8ce
CPXPARAM_Threads                                 1
CPXPARAM_MIP_Strategy_VariableSelect             3
CPXPARAM_TimeLimit                               599.99998320999998
1 of 1 MIP starts provided solutions.
MIP start 'm1' defined initial solution with objective 1.0000.
Tried aggregator 1 time.
MIP Presolve eliminated 17 rows and 0 columns.
MIP Presolve modified 552 coefficients.
Reduced MIP has 4505 rows, 10500 columns, and 213226 nonzeros.
Reduced MIP has 10500 binaries, 0 generals, 0 SOSs, and 0 indicators.
Presolve time = 0.21 sec. (347.59 ticks)
Probing time = 0.03 sec. (24.63 ticks)
Tried aggregator 1 time.
Detecting symmetries...
MIP Presolve modified 16 coefficients.
Reduced MIP has 4505 rows, 10500 columns, and 213394 nonzeros.
Reduced MIP has 10500 binaries, 0 generals, 0 SOSs, and 0 indicators.
Presolve time = 0.20 sec. (323.00 ticks)
Probing time = 0.03 sec. (24.64 ticks)
Clique table members: 3490.
MIP emphasis: balance optimality and feasibility.
MIP search method: dynamic search.
Parallel mode: none, using 1 thread.
Root relaxation solution time = 4.67 sec. (5558.44 ticks)

        Nodes                                         Cuts/
   Node  Left     Objective  IInf  Best Integer    Best Bound    ItCnt     Gap

*     0+    0                            1.0000   125250.0000              --- 
      0     0      500.0000  2162        1.0000      500.0000    10546     --- 
*     0+    0                          263.0000      500.0000            90.11%
      0     0      500.0000   380      263.0000      Cuts: 13    15247   90.11%
*     0+    0                          500.0000      500.0000             0.00%
      0     0        cutoff            500.0000      500.0000    15247    0.00%
Elapsed time = 49.41 sec. (51126.80 ticks, tree = 0.01 MB, solutions = 3)

Clique cuts applied:  8
Zero-half cuts applied:  2

Root node processing (before b&c):
  Real time             =   49.42 sec. (51127.28 ticks)
Sequential b&c:
  Real time             =    0.00 sec. (0.00 ticks)
                          ------------
Total (root+branch&cut) =   49.42 sec. (51127.28 ticks)
Primal:	500
Dual:	500
Status:	Optimal
Time:	49.43
Sequence:
	17
	14
	6
	17
	14
	5
	8
	7
	5
	8
	16
	3
	8
	16
	3
	8
	13
	16
	12
	19
	16
	4
	8
	14
	6
	17
	14
	5
	8
	16
	13
	17
	14
	13
	17
	7
	3
	17
	4
	14
	17
	13
	16
	8
	5
	7
	17
	4
	16
	8
	5
	13
	9
	11
	6
	9
	11
	6
	9
	11
	4
	9
	5
	3
	18
	4
	2
	18
	4
	2
	18
	3
	2
	18
	4
	2
	18
	4
	5
	8
	4
	14
	17
	4
	3
	18
	3
	2
	18
	4
	2
	18
	4
	2
	18
	3
	2
	18
	3
	3
	17
	13
	7
	9
	0
	16
	19
	12
	16
	1
	12
	16
	1
	12
	16
	19
	12
	16
	19
	12
	14
	1
	12
	7
	19
	12
	16
	19
	12
	4
	10
	15
	0
	10
	2
	0
	10
	2
	3
	18
	2
	4
	18
	2
	4
	18
	3
	2
	18
	3
	2
	18
	4
	3
	8
	16
	13
	8
	5
	14
	8
	4
	16
	8
	3
	7
	17
	13
	14
	8
	4
	14
	17
	4
	16
	8
	5
	14
	8
	13
	7
	17
	4
	16
	8
	13
	16
	8
	13
	5
	8
	16
	13
	17
	7
	13
	8
	7
	13
	8
	16
	6
	9
	11
	13
	9
	11
	4
	1
	11
	15
	1
	11
	13
	9
	11
	4
	9
	11
	13
	9
	11
	13
	9
	0
	14
	9
	0
	16
	9
	0
	7
	9
	0
	14
	1
	12
	16
	13
	17
	3
	6
	10
	0
	15
	10
	0
	15
	10
	0
	15
	10
	0
	15
	10
	0
	15
	10
	0
	15
	10
	0
	15
	10
	0
	5
	9
	11
	13
	9
	11
	6
	9
	11
	13
	9
	11
	13
	9
	11
	6
	9
	16
	0
	9
	6
	11
	9
	13
	11
	9
	13
	11
	9
	5
	7
	8
	13
	14
	8
	4
	14
	17
	6
	7
	8
	5
	7
	8
	5
	7
	17
	6
	7
	8
	5
	3
	11
	19
	2
	0
	10
	15
	0
	10
	15
	0
	10
	15
	0
	10
	15
	0
	10
	13
	12
	1
	14
	15
	1
	11
	15
	1
	11
	15
	1
	11
	15
	1
	7
	12
	19
	16
	12
	1
	14
	12
	1
	7
	12
	19
	7
	12
	19
	7
	12
	4
	10
	0
	15
	1
	11
	2
	19
	11
	2
	1
	11
	15
	1
	5
	4
	18
	2
	3
	18
	2
	4
	18
	2
	3
	18
	2
	3
	10
	0
	4
	10
	12
	4
	19
	12
	4
	10
	15
	0
	1
	2
	11
	19
	2
	11
	1
	2
	16
	19
	12
	14
	19
	12
	7
	19
	12
	16
	1
	12
	16
	19
	12
	16
	1
	12
	7
	19
	12
	7
	1
	12
	7
	19
	12
	7
	1
	12
	7
	1
	12
	7
	1
	5
	14
	8
	5
	7
	8
	13
	7
	17
	13
	3
	17
	7
	6
	17
	7
	6
	17
	14
	13
	8
	5
	7
	8
	5
	14
	8
	6
	16
	8
	5
	14
	8
	5
	14
	8
	6
	7
	17
	13
	7
	17
	6
	7
	17
	6
	14
	17
	6
	14
	17
